Vertices: 25
Edges: 33
Edge Density: 0.11
Degree Variance: 3.150399999999997
Clustering Coefficient: 0.0004347826086956522
p edge 25
e 0 1
e 0 2
e 0 13
e 0 16
e 1 5
e 1 11
e 1 13
e 1 19
e 2 5
e 2 7
e 2 8
e 2 12
e 3 6
e 3 11
e 3 12
e 3 16
e 3 20
e 3 24
e 4 20
e 5 24
e 7 13
e 8 15
e 8 23
e 9 10
e 9 17
e 10 21
e 11 21
e 11 22
e 13 23
e 18 19
e 18 23
e 20 22
e 20 23
